95 32 3 65 21 69 10 44 70 86 94 93 83 63 37 1 52 92 24 42 49 43 26 96 50 87 14 23 18 97 56 91 16 19 2 61 98 11 99 59 85 0 72 20 30 5 40 39 84 8 71 51 48 13 55 58 15 31 79 54 53 33 12 47 82 68 36 74 38 89 66 7 25 27 34 17 67 46 80 57 29 6 73 35 62 75 88 64 78 4 9 60 28 22 45 90 41 81 76 77 

